
Gurobi 9.1.2 (linux64) logging started Wed Oct 13 02:59:51 2021

Changed value of parameter LogFile to /home/zongzan/dist_dnn_training/MixedMemoryOpt/data/budget_sweep/p32xlarge_VGG16_256_None/ilp_log/ilp_mixed_20893139648.log
   Prev:   Default: 
Changed value of parameter Threads to 32
   Prev: 0  Min: 0  Max: 1024  Default: 0
Changed value of parameter TimeLimit to 3600.0
   Prev: inf  Min: 0.0  Max: inf  Default: inf
Changed value of parameter OptimalityTol to 0.0001
   Prev: 1e-06  Min: 1e-09  Max: 0.01  Default: 1e-06
Parameter IntFeasTol unchanged
   Value: 1e-05  Min: 1e-09  Max: 0.1  Default: 1e-05
Changed value of parameter Presolve to 2
   Prev: -1  Min: -1  Max: 2  Default: -1
Changed value of parameter StartNodeLimit to 10000000
   Prev: -1  Min: -3  Max: 2000000000  Default: -1
Changed value of parameter TimeLimit to 300.0
   Prev: 3600.0  Min: 0.0  Max: inf  Default: inf
Gurobi Optimizer version 9.1.2 build v9.1.2rc0 (linux64)
Thread count: 28 physical cores, 56 logical processors, using up to 32 threads
Optimize a model with 61102 rows, 14040 columns and 576953 nonzeros
Model fingerprint: 0xcce90211
Variable types: 2025 continuous, 12015 integer (12015 binary)
Coefficient statistics:
  Matrix range     [1e+00, 5e+07]
  Objective range  [4e+00, 2e+02]
  Bounds range     [1e+00, 3e+08]
  RHS range        [1e+00, 3e+08]
Presolve removed 54189 rows and 9133 columns
Presolve time: 2.07s
Presolved: 6913 rows, 4907 columns, 37908 nonzeros
Variable types: 0 continuous, 4907 integer (3909 binary)
Found heuristic solution: objective 17034.806244
Found heuristic solution: objective 9512.0659866
Found heuristic solution: objective 5474.2801139
Presolve removed 82 rows and 68 columns
Presolved: 6831 rows, 4839 columns, 37555 nonzeros


Root relaxation: objective 3.103055e+03, 2708 iterations, 0.21 seconds

    Nodes    |    Current Node    |     Objective Bounds      |     Work
 Expl Unexpl |  Obj  Depth IntInf | Incumbent    BestBd   Gap | It/Node Time

     0     0 3103.05533    0   52 5474.28011 3103.05533  43.3%     -    2s
H    0     0                    5413.9223793 3103.05533  42.7%     -    2s
H    0     0                    5351.6374396 3103.05533  42.0%     -    2s
     0     0 3103.05533    0   27 5351.63744 3103.05533  42.0%     -    2s
H    0     0                    3304.9647472 3103.05533  6.11%     -    2s
     0     0 3103.05533    0    9 3304.96475 3103.05533  6.11%     -    2s
     0     0 3103.05533    0    8 3304.96475 3103.05533  6.11%     -    2s
H    0     0                    3103.0553308 3103.05533  0.00%     -    2s

Cutting planes:
  Gomory: 9
  Cover: 17
  Clique: 11
  MIR: 6
  GUB cover: 1
  Zero half: 3

Explored 1 nodes (8319 simplex iterations) in 2.98 seconds
Thread count was 32 (of 56 available processors)

Solution count 7: 3103.06 3304.96 5351.64 ... 17034.8

Optimal solution found (tolerance 1.00e-04)
Best objective 3.103055330833e+03, best bound 3.103055330833e+03, gap 0.0000%
Changed value of parameter TimeLimit to 3600.0
   Prev: 300.0  Min: 0.0  Max: inf  Default: inf


Restarting solve


Gurobi Optimizer version 9.1.2 build v9.1.2rc0 (linux64)
Thread count: 28 physical cores, 56 logical processors, using up to 32 threads
Optimize a model with 59836 rows, 14040 columns and 575687 nonzeros
Model fingerprint: 0x1777b207
Variable types: 2025 continuous, 12015 integer (12015 binary)
Coefficient statistics:
  Matrix range     [1e+00, 5e+07]
  Objective range  [4e+00, 2e+02]
  Bounds range     [1e+00, 3e+08]
  RHS range        [1e+00, 3e+08]

MIP start from previous solve produced solution with objective 3103.06 (0.11s)
Loaded MIP start from previous solve with objective 3103.06

Presolve removed 58173 rows and 12406 columns
Presolve time: 2.89s
Presolved: 1663 rows, 1634 columns, 18771 nonzeros
Variable types: 0 continuous, 1634 integer (1633 binary)

Explored 0 nodes (0 simplex iterations) in 3.02 seconds
Thread count was 32 (of 56 available processors)

Solution count 1: 3103.06 

Optimal solution found (tolerance 1.00e-04)
Best objective 3.103055330833e+03, best bound 3.103055330833e+03, gap 0.0000%
